Solver command line: ['C:\\Program Files\\IBM\\ILOG\\CPLEX_Studio2211\\cplex\\bin\\x64_win64\\cplex.exe']


Welcome to IBM(R) ILOG(R) CPLEX(R) Interactive Optimizer 22.1.1.0
  with Simplex, Mixed Integer & Barrier Optimizers
5725-A06 5725-A29 5724-Y48 5724-Y49 5724-Y54 5724-Y55 5655-Y21
Copyright IBM Corp. 1988, 2022.  All Rights Reserved.

Type 'help' for a list of available commands.
Type 'help' followed by a command name for more
information on commands.

CPLEX> Logfile 'cplex.log' closed.
Logfile 'C:\Users\wangy\Documents\GitHub\re_optimization\result_site_specific_2\tmpsiuig9il.cplex.log' open.
CPLEX> Problem 'C:\Users\wangy\Documents\GitHub\re_optimization\result_site_specific_2\tmphiy7qko5.pyomo.lp' read.
Read time = 0.27 sec. (7.98 ticks)
CPLEX> Problem name         : C:\Users\wangy\Documents\GitHub\re_optimization\result_site_specific_2\tmphiy7qko5.pyomo.lp
Objective sense      : Minimize
Variables            :   56997  [Nneg: 30685,  Free: 4406,  Binary: 6,
                                 Other: 21900]
Objective nonzeros   :      14
Linear constraints   :   78893  [Less: 42355,  Greater: 5,  Equal: 36533]
  Nonzeros           :  198769
  RHS nonzeros       :    3722

Variables            : Min LB: 0.000000         Max UB: 1.000000       
Objective nonzeros   : Min   : 1.000000         Max   : 1.000000       
Linear constraints   :
  Nonzeros           : Min   : 0.002339912      Max   : 100000.0       
  RHS nonzeros       : Min   : 0.004000000      Max   : 100000.0       
CPLEX> Version identifier: 22.1.1.0 | 2022-11-27 | 9160aff4d
Tried aggregator 3 times.
MIP Presolve eliminated 45273 rows and 24830 columns.
Aggregator did 11877 substitutions.
Reduced MIP has 21743 rows, 20290 columns, and 66209 nonzeros.
Reduced MIP has 2 binaries, 0 generals, 0 SOSs, and 0 indicators.
Presolve time = 0.19 sec. (210.02 ticks)
Found incumbent of value 182412.292966 after 0.27 sec. (310.15 ticks)
Probing time = 0.00 sec. (1.13 ticks)
Tried aggregator 1 time.
Detecting symmetries...
Reduced MIP has 21743 rows, 20290 columns, and 66209 nonzeros.
Reduced MIP has 2 binaries, 0 generals, 0 SOSs, and 0 indicators.
Presolve time = 0.05 sec. (42.12 ticks)
Probing time = 0.00 sec. (1.07 ticks)
MIP emphasis: balance optimality and feasibility.
MIP search method: dynamic search.
Parallel mode: deterministic, using up to 16 threads.
Root relaxation solution time = 0.95 sec. (583.29 ticks)

        Nodes                                         Cuts/
   Node  Left     Objective  IInf  Best Integer    Best Bound    ItCnt     Gap

*     0+    0                       182412.2930     -891.5543           100.49%
      0     0    23186.4633     1   182412.2930    23186.4633     4161   87.29%
*     0+    0                        24790.9614    23186.4633             6.47%
      0     0        cutoff          24790.9614                   4926    0.00%
Elapsed time = 1.70 sec. (1585.66 ticks, tree = 0.01 MB, solutions = 2)

Root node processing (before b&c):
  Real time             =    1.72 sec. (1588.05 ticks)
Parallel b&c, 16 threads:
  Real time             =    0.00 sec. (0.00 ticks)
  Sync time (average)   =    0.00 sec.
  Wait time (average)   =    0.00 sec.
                          ------------
Total (root+branch&cut) =    1.72 sec. (1588.05 ticks)

Solution pool: 2 solutions saved.

MIP - Integer optimal solution:  Objective =  2.4790961439e+04
Solution time =    1.73 sec.  Iterations = 4926  Nodes = 0
Deterministic time = 1588.21 ticks  (915.40 ticks/sec)

CPLEX> Incumbent solution written to file 'C:\Users\wangy\Documents\GitHub\re_optimization\result_site_specific_2\tmpr5ecpp_z.cplex.sol'.
CPLEX> 
